# Objective value = 7.7512199999999884e+03
I_0_0 676
I_0_1 7.2400000000000728e+02
I_0_2 7.8400000000000853e+02
I_0_3 7.2400000000000182e+02
I_0_4 783.999999999998
I_0_5 723.999999999998
I_0_6 1.0379999999999993e+03
I_1_0 53
I_1_1 5.2999999999992241e+01
I_1_2 0
I_1_3 5.2999999999999716e+01
I_1_4 0
I_1_5 53
I_1_6 0
I_2_0 67
I_2_1 67
I_2_2 67
I_2_3 67
I_2_4 67
I_2_5 67
I_2_6 0
I_3_0 91
I_3_1 91
I_3_2 91
I_3_3 91
I_3_4 91
I_3_5 91
I_3_6 0
I_4_0 55
I_4_1 5.4999999999996064e+01
I_4_2 -3.9435121834685560e-12
I_4_3 5.5000000000003944e+01
I_4_4 -9.4999140235637470e-13
I_4_5 55
I_4_6 0
I_5_0 96
I_5_1 4.8000000000003524e+01
I_5_2 9.5999999999994571e+01
I_5_3 4.7999999999994571e+01
I_5_4 9.6000000000003240e+01
I_5_5 4.8000000000001407e+01
I_5_6 0
q_1_0_0 5.2999999999983380e+01
q_1_0_1 7.7591266744997253e-12
q_1_0_2 0
q_1_0_3 0
q_1_0_4 8.93576352153237e-13
q_1_0_5 0
q_1_1_0 9.7475678322617954e-12
q_1_1_1 0
q_1_1_2 1.0599999999999881e+02
q_1_1_3 0
q_1_1_4 1.0599999999999272e+02
q_1_1_5 0
q_1_2_0 0
q_1_2_1 0
q_1_2_2 0
q_1_2_3 0
q_1_2_4 0
q_1_2_5 0
q_1_3_0 0
q_1_3_1 0
q_1_3_2 0
q_1_3_3 0
q_1_3_4 7.2729822871149831e-12
q_1_3_5 0
q_2_0_0 0
q_2_0_1 0
q_2_0_2 0
q_2_0_3 0
q_2_0_4 0
q_2_0_5 0
q_2_1_0 8.5555931511934032e-12
q_2_1_1 0
q_2_1_2 0
q_2_1_3 0
q_2_1_4 0
q_2_1_5 0
q_2_2_0 6.6999999999991445e+01
q_2_2_1 67
q_2_2_2 -1.1080541365666558e-11
q_2_2_3 67
q_2_2_4 4.5970737097802245e-12
q_2_2_5 0
q_2_3_0 0
q_2_3_1 0
q_2_3_2 6.7000000000011084e+01
q_2_3_3 0
q_2_3_4 6.6999999999995410e+01
q_2_3_5 0
q_3_0_0 6.50961328594564e-12
q_3_0_1 -2.0761725672002740e-11
q_3_0_2 0
q_3_0_3 0
q_3_0_4 0
q_3_0_5 0
q_3_1_0 9.0999999999993491e+01
q_3_1_1 9.1000000000020776e+01
q_3_1_2 0
q_3_1_3 91
q_3_1_4 6.2436722458869554e-12
q_3_1_5 0
q_3_2_0 0
q_3_2_1 0
q_3_2_2 9.1000000000004519e+01
q_3_2_3 0
q_3_2_4 9.0999999999993761e+01
q_3_2_5 0
q_3_3_0 0
q_3_3_1 0
q_3_3_2 -4.5261572267918382e-12
q_3_3_3 0
q_3_3_4 0
q_3_3_5 0
q_4_0_0 5.4999999999996064e+01
q_4_0_1 0
q_4_0_2 110
q_4_0_3 -4.88639815846733e-12
q_4_0_4 1.0999999999999639e+02
q_4_0_5 0
q_4_1_0 0
q_4_1_1 0
q_4_1_2 0
q_4_1_3 0
q_4_1_4 0
q_4_1_5 0
q_4_2_0 0
q_4_2_1 0
q_4_2_2 7.88957080810284e-12
q_4_2_3 0
q_4_2_4 4.5595485000176836e-12
q_4_2_5 0
q_4_3_0 0
q_4_3_1 0
q_4_3_2 0
q_4_3_3 0
q_4_3_4 0
q_4_3_5 0
q_5_0_0 1.1622702800195839e-11
q_5_0_1 9.6000000000012946e+01
q_5_0_2 0
q_5_0_3 9.6000000000004718e+01
q_5_0_4 2.2316817028950382e-12
q_5_0_5 0
q_5_1_0 -8.0940968213586251e-12
q_5_1_1 -2.1902479829805088e-11
q_5_1_2 0
q_5_1_3 0
q_5_1_4 0
q_5_1_5 0
q_5_2_0 0
q_5_2_1 0
q_5_2_2 0
q_5_2_3 3.95076855445112e-12
q_5_2_4 -4.0621432091066637e-12
q_5_2_5 -1.4068746168049984e-12
q_5_3_0 0
q_5_3_1 0
q_5_3_2 0
q_5_3_3 0
q_5_3_4 0
q_5_3_5 0
y_0_0_0 1
y_0_0_1 1
y_0_0_2 1
y_0_0_3 1
y_0_0_4 1
y_0_0_5 0
y_0_1_0 1
y_0_1_1 1
y_0_1_2 1
y_0_1_3 1
y_0_1_4 1
y_0_1_5 0
y_0_2_0 9.9999999999987221e-01
y_0_2_1 1
y_0_2_2 1
y_0_2_3 1
y_0_2_4 1
y_0_2_5 0
y_0_3_0 0
y_0_3_1 0
y_0_3_2 1.0000000000001157e+00
y_0_3_3 0
y_0_3_4 1
y_0_3_5 0
y_1_0_0 9.9999999999968636e-01
y_1_0_1 7.3199308249997409e-14
y_1_0_2 0
y_1_0_3 0
y_1_0_4 0
y_1_0_5 0
y_1_1_0 1.8391637419361877e-13
y_1_1_1 0
y_1_1_2 1
y_1_1_3 0
y_1_1_4 9.9999999999993139e-01
y_1_1_5 0
y_1_2_0 0
y_1_2_1 0
y_1_2_2 0
y_1_2_3 0
y_1_2_4 0
y_1_2_5 0
y_1_3_0 0
y_1_3_1 0
y_1_3_2 0
y_1_3_3 0
y_1_3_4 6.8613040444480969e-14
y_1_3_5 0
y_2_0_0 0
y_2_0_1 0
y_2_0_2 0
y_2_0_3 0
y_2_0_4 0
y_2_0_5 0
y_2_1_0 1.2769542016706571e-13
y_2_1_1 0
y_2_1_2 0
y_2_1_3 0
y_2_1_4 0
y_2_1_5 0
y_2_2_0 9.9999999999987232e-01
y_2_2_1 1
y_2_2_2 -1.6538121441293369e-13
y_2_2_3 1
y_2_2_4 6.8613040444480969e-14
y_2_2_5 0
y_2_3_0 0
y_2_3_1 0
y_2_3_2 1.0000000000001654e+00
y_2_3_3 0
y_2_3_4 9.9999999999993139e-01
y_2_3_5 0
y_3_0_0 7.1534211933468567e-14
y_3_0_1 -2.2815083156046967e-13
y_3_0_2 0
y_3_0_3 0
y_3_0_4 0
y_3_0_5 0
y_3_1_0 9.9999999999992850e-01
y_3_1_1 1.0000000000002283e+00
y_3_1_2 0
y_3_1_3 1
y_3_1_4 6.8611782921834674e-14
y_3_1_5 0
y_3_2_0 0
y_3_2_1 0
y_3_2_2 1.0000000000000497e+00
y_3_2_3 0
y_3_2_4 9.9999999999993139e-01
y_3_2_5 0
y_3_3_0 0
y_3_3_1 0
y_3_3_2 -4.9737991503207013e-14
y_3_3_3 0
y_3_3_4 0
y_3_3_5 0
y_4_0_0 9.9999999999992839e-01
y_4_0_1 0
y_4_0_2 1
y_4_0_3 -4.4421801440612086e-14
y_4_0_4 9.9999999999995848e-01
y_4_0_5 0
y_4_1_0 0
y_4_1_1 0
y_4_1_2 0
y_4_1_3 0
y_4_1_4 0
y_4_1_5 0
y_4_2_0 0
y_4_2_1 0
y_4_2_2 7.17233709827531e-14
y_4_2_3 0
y_4_2_4 4.1450440909251668e-14
y_4_2_5 0
y_4_3_0 0
y_4_3_1 0
y_4_3_2 0
y_4_3_3 0
y_4_3_4 0
y_4_3_5 0
y_5_0_0 2.4213964167074664e-13
y_5_0_1 1.0000000000001719e+00
y_5_0_2 0
y_5_0_3 1.0000000000000338e+00
y_5_0_4 0
y_5_0_5 0
y_5_1_0 -1.6862701711163804e-13
y_5_1_1 -2.2815083156046967e-13
y_5_1_2 3.2763915037827256e-14
y_5_1_3 0
y_5_1_4 0
y_5_1_5 -6.7303694023424731e-14
y_5_2_0 0
y_5_2_1 0
y_5_2_2 -4.98750860865632e-14
y_5_2_3 3.3481089444501019e-14
y_5_2_4 0
y_5_2_5 0
y_5_3_0 0
y_5_3_1 0
y_5_3_2 0
y_5_3_3 0
y_5_3_4 0
y_5_3_5 0
x_0_1_0_0 9.9999999999944433e-01
x_0_1_0_1 1.4639861649999482e-13
x_0_1_0_2 0
x_0_1_0_3 0
x_0_1_0_4 0
x_0_1_0_5 0
x_0_1_1_0 3.6783274838723755e-13
x_0_1_1_1 0
x_0_1_1_2 2
x_0_1_1_3 0
x_0_1_1_4 1.9999999999998628e+00
x_0_1_1_5 0
x_0_1_2_0 0
x_0_1_2_1 0
x_0_1_2_2 0
x_0_1_2_3 0
x_0_1_2_4 0
x_0_1_2_5 0
x_0_1_3_0 0
x_0_1_3_1 0
x_0_1_3_2 0
x_0_1_3_3 0
x_0_1_3_4 1.3722608088896194e-13
x_0_1_3_5 0
x_0_2_0_0 0
x_0_2_0_1 0
x_0_2_0_2 0
x_0_2_0_3 0
x_0_2_0_4 0
x_0_2_0_5 0
x_0_2_1_0 2.5539084033413142e-13
x_0_2_1_1 0
x_0_2_1_2 0
x_0_2_1_3 0
x_0_2_1_4 0
x_0_2_1_5 0
x_0_2_2_0 1.9999999999997446e+00
x_0_2_2_1 2
x_0_2_2_2 -2.4292272497192023e-13
x_0_2_2_3 2
x_0_2_2_4 1.3722608088896194e-13
x_0_2_2_5 0
x_0_2_3_0 0
x_0_2_3_1 0
x_0_2_3_2 2.0000000000003308e+00
x_0_2_3_3 0
x_0_2_3_4 1.9999999999998628e+00
x_0_2_3_5 0
x_0_3_0_0 1.4306842386693713e-13
x_0_3_0_1 -4.5630166312093934e-13
x_0_3_0_2 0
x_0_3_0_3 0
x_0_3_0_4 0
x_0_3_0_5 0
x_0_3_1_0 1.9999999999998570e+00
x_0_3_1_1 2.0000000000004565e+00
x_0_3_1_2 0
x_0_3_1_3 2
x_0_3_1_4 1.3722356584366935e-13
x_0_3_1_5 0
x_0_3_2_0 0
x_0_3_2_1 0
x_0_3_2_2 2.0000000000000995e+00
x_0_3_2_3 0
x_0_3_2_4 1.9999999999998628e+00
x_0_3_2_5 0
x_0_3_3_0 0
x_0_3_3_1 0
x_0_3_3_2 -9.9475983006414026e-14
x_0_3_3_3 0
x_0_3_3_4 0
x_0_3_3_5 0
x_0_4_0_0 9.9999999999992839e-01
x_0_4_0_1 0
x_0_4_0_2 2
x_0_4_0_3 0
x_0_4_0_4 1.9999999999999791e+00
x_0_4_0_5 0
x_0_4_1_0 0
x_0_4_1_1 0
x_0_4_1_2 0
x_0_4_1_3 0
x_0_4_1_4 0
x_0_4_1_5 0
x_0_4_2_0 0
x_0_4_2_1 0
x_0_4_2_2 1.4344674196550621e-13
x_0_4_2_3 0
x_0_4_2_4 0
x_0_4_2_5 0
x_0_4_3_0 0
x_0_4_3_1 0
x_0_4_3_2 0
x_0_4_3_3 0
x_0_4_3_4 0
x_0_4_3_5 0
x_0_5_0_0 4.8427928334149328e-13
x_0_5_0_1 2.0000000000003437e+00
x_0_5_0_2 0
x_0_5_0_3 2.0000000000000675e+00
x_0_5_0_4 0
x_0_5_0_5 0
x_0_5_1_0 -3.3725403422327608e-13
x_0_5_1_1 -4.5630166312093934e-13
x_0_5_1_2 0
x_0_5_1_3 0
x_0_5_1_4 0
x_0_5_1_5 0
x_0_5_2_0 0
x_0_5_2_1 0
x_0_5_2_2 0
x_0_5_2_3 0
x_0_5_2_4 0
x_0_5_2_5 0
x_0_5_3_0 0
x_0_5_3_1 0
x_0_5_3_2 0
x_0_5_3_3 0
x_0_5_3_4 0
x_0_5_3_5 0
x_1_2_0_0 0
x_1_2_0_1 0
x_1_2_0_2 0
x_1_2_0_3 0
x_1_2_0_4 0
x_1_2_0_5 0
x_1_2_1_0 0
x_1_2_1_1 0
x_1_2_1_2 0
x_1_2_1_3 0
x_1_2_1_4 0
x_1_2_1_5 0
x_1_2_2_0 0
x_1_2_2_1 0
x_1_2_2_2 0
x_1_2_2_3 0
x_1_2_2_4 0
x_1_2_2_5 0
x_1_2_3_0 0
x_1_2_3_1 0
x_1_2_3_2 0
x_1_2_3_3 0
x_1_2_3_4 0
x_1_2_3_5 0
x_1_3_0_0 0
x_1_3_0_1 0
x_1_3_0_2 0
x_1_3_0_3 0
x_1_3_0_4 0
x_1_3_0_5 0
x_1_3_1_0 0
x_1_3_1_1 0
x_1_3_1_2 0
x_1_3_1_3 0
x_1_3_1_4 0
x_1_3_1_5 0
x_1_3_2_0 0
x_1_3_2_1 0
x_1_3_2_2 0
x_1_3_2_3 0
x_1_3_2_4 0
x_1_3_2_5 0
x_1_3_3_0 0
x_1_3_3_1 0
x_1_3_3_2 0
x_1_3_3_3 0
x_1_3_3_4 0
x_1_3_3_5 0
x_1_4_0_0 9.9999999999992839e-01
x_1_4_0_1 0
x_1_4_0_2 0
x_1_4_0_3 0
x_1_4_0_4 -2.0780845398912489e-14
x_1_4_0_5 0
x_1_4_1_0 0
x_1_4_1_1 0
x_1_4_1_2 0
x_1_4_1_3 0
x_1_4_1_4 0
x_1_4_1_5 0
x_1_4_2_0 0
x_1_4_2_1 0
x_1_4_2_2 0
x_1_4_2_3 0
x_1_4_2_4 0
x_1_4_2_5 0
x_1_4_3_0 0
x_1_4_3_1 0
x_1_4_3_2 0
x_1_4_3_3 0
x_1_4_3_4 0
x_1_4_3_5 0
x_1_5_0_0 0
x_1_5_0_1 0
x_1_5_0_2 0
x_1_5_0_3 0
x_1_5_0_4 0
x_1_5_0_5 0
x_1_5_1_0 0
x_1_5_1_1 0
x_1_5_1_2 0
x_1_5_1_3 0
x_1_5_1_4 0
x_1_5_1_5 0
x_1_5_2_0 0
x_1_5_2_1 0
x_1_5_2_2 0
x_1_5_2_3 0
x_1_5_2_4 0
x_1_5_2_5 0
x_1_5_3_0 0
x_1_5_3_1 0
x_1_5_3_2 0
x_1_5_3_3 0
x_1_5_3_4 0
x_1_5_3_5 0
x_2_3_0_0 0
x_2_3_0_1 0
x_2_3_0_2 0
x_2_3_0_3 0
x_2_3_0_4 0
x_2_3_0_5 0
x_2_3_1_0 0
x_2_3_1_1 0
x_2_3_1_2 0
x_2_3_1_3 0
x_2_3_1_4 0
x_2_3_1_5 0
x_2_3_2_0 0
x_2_3_2_1 0
x_2_3_2_2 0
x_2_3_2_3 0
x_2_3_2_4 0
x_2_3_2_5 0
x_2_3_3_0 0
x_2_3_3_1 0
x_2_3_3_2 0
x_2_3_3_3 0
x_2_3_3_4 0
x_2_3_3_5 0
x_2_4_0_0 0
x_2_4_0_1 0
x_2_4_0_2 0
x_2_4_0_3 0
x_2_4_0_4 0
x_2_4_0_5 0
x_2_4_1_0 0
x_2_4_1_1 0
x_2_4_1_2 0
x_2_4_1_3 0
x_2_4_1_4 0
x_2_4_1_5 0
x_2_4_2_0 0
x_2_4_2_1 0
x_2_4_2_2 0
x_2_4_2_3 0
x_2_4_2_4 0
x_2_4_2_5 0
x_2_4_3_0 0
x_2_4_3_1 0
x_2_4_3_2 0
x_2_4_3_3 0
x_2_4_3_4 0
x_2_4_3_5 0
x_2_5_0_0 0
x_2_5_0_1 0
x_2_5_0_2 0
x_2_5_0_3 0
x_2_5_0_4 0
x_2_5_0_5 0
x_2_5_1_0 0
x_2_5_1_1 0
x_2_5_1_2 0
x_2_5_1_3 0
x_2_5_1_4 0
x_2_5_1_5 0
x_2_5_2_0 0
x_2_5_2_1 0
x_2_5_2_2 -8.7839703853947134e-14
x_2_5_2_3 0
x_2_5_2_4 0
x_2_5_2_5 0
x_2_5_3_0 0
x_2_5_3_1 0
x_2_5_3_2 0
x_2_5_3_3 0
x_2_5_3_4 0
x_2_5_3_5 0
x_3_4_0_0 0
x_3_4_0_1 0
x_3_4_0_2 0
x_3_4_0_3 0
x_3_4_0_4 0
x_3_4_0_5 0
x_3_4_1_0 0
x_3_4_1_1 0
x_3_4_1_2 0
x_3_4_1_3 0
x_3_4_1_4 0
x_3_4_1_5 0
x_3_4_2_0 0
x_3_4_2_1 0
x_3_4_2_2 0
x_3_4_2_3 0
x_3_4_2_4 0
x_3_4_2_5 0
x_3_4_3_0 0
x_3_4_3_1 0
x_3_4_3_2 0
x_3_4_3_3 0
x_3_4_3_4 0
x_3_4_3_5 0
x_3_5_0_0 0
x_3_5_0_1 0
x_3_5_0_2 0
x_3_5_0_3 0
x_3_5_0_4 0
x_3_5_0_5 0
x_3_5_1_0 0
x_3_5_1_1 0
x_3_5_1_2 0
x_3_5_1_3 0
x_3_5_1_4 0
x_3_5_1_5 0
x_3_5_2_0 0
x_3_5_2_1 0
x_3_5_2_2 0
x_3_5_2_3 0
x_3_5_2_4 0
x_3_5_2_5 0
x_3_5_3_0 0
x_3_5_3_1 0
x_3_5_3_2 0
x_3_5_3_3 0
x_3_5_3_4 0
x_3_5_3_5 0
x_4_5_0_0 0
x_4_5_0_1 0
x_4_5_0_2 0
x_4_5_0_3 0
x_4_5_0_4 0
x_4_5_0_5 0
x_4_5_1_0 0
x_4_5_1_1 0
x_4_5_1_2 0
x_4_5_1_3 0
x_4_5_1_4 0
x_4_5_1_5 0
x_4_5_2_0 0
x_4_5_2_1 0
x_4_5_2_2 0
x_4_5_2_3 0
x_4_5_2_4 0
x_4_5_2_5 0
x_4_5_3_0 0
x_4_5_3_1 0
x_4_5_3_2 0
x_4_5_3_3 0
x_4_5_3_4 0
x_4_5_3_5 0
